c generated by sgen
p cnf 93 196
-2 -3 -4 0
-1 -3 -4 0
-1 -2 -4 0
-1 -2 -3 0
-6 -7 -8 0
-5 -7 -8 0
-5 -6 -8 0
-5 -6 -7 0
-10 -11 -12 0
-9 -11 -12 0
-9 -10 -12 0
-9 -10 -11 0
-14 -15 -16 0
-13 -15 -16 0
-13 -14 -16 0
-13 -14 -15 0
-18 -19 -20 0
-17 -19 -20 0
-17 -18 -20 0
-17 -18 -19 0
-22 -23 -24 0
-21 -23 -24 0
-21 -22 -24 0
-21 -22 -23 0
-26 -27 -28 0
-25 -27 -28 0
-25 -26 -28 0
-25 -26 -27 0
-30 -31 -32 0
-29 -31 -32 0
-29 -30 -32 0
-29 -30 -31 0
-34 -35 -36 0
-33 -35 -36 0
-33 -34 -36 0
-33 -34 -35 0
-38 -39 -40 0
-37 -39 -40 0
-37 -38 -40 0
-37 -38 -39 0
-42 -43 -44 0
-41 -43 -44 0
-41 -42 -44 0
-41 -42 -43 0
-46 -47 -48 0
-45 -47 -48 0
-45 -46 -48 0
-45 -46 -47 0
-50 -51 -52 0
-49 -51 -52 0
-49 -50 -52 0
-49 -50 -51 0
-54 -55 -56 0
-53 -55 -56 0
-53 -54 -56 0
-53 -54 -55 0
-58 -59 -60 0
-57 -59 -60 0
-57 -58 -60 0
-57 -58 -59 0
-62 -63 -64 0
-61 -63 -64 0
-61 -62 -64 0
-61 -62 -63 0
-66 -67 -68 0
-65 -67 -68 0
-65 -66 -68 0
-65 -66 -67 0
-70 -71 -72 0
-69 -71 -72 0
-69 -70 -72 0
-69 -70 -71 0
-74 -75 -76 0
-73 -75 -76 0
-73 -74 -76 0
-73 -74 -75 0
-78 -79 -80 0
-77 -79 -80 0
-77 -78 -80 0
-77 -78 -79 0
-82 -83 -84 0
-81 -83 -84 0
-81 -82 -84 0
-81 -82 -83 0
-86 -87 -88 0
-85 -87 -88 0
-85 -86 -88 0
-85 -86 -87 0
-89 -90 -91 0
-89 -90 -92 0
-89 -90 -93 0
-89 -91 -92 0
-89 -91 -93 0
-89 -92 -93 0
-90 -91 -92 0
-90 -91 -93 0
-90 -92 -93 0
-91 -92 -93 0
38 18 14 0
4 18 14 0
4 38 14 0
4 38 18 0
71 79 1 0
47 79 1 0
47 71 1 0
47 71 79 0
92 32 20 0
50 32 20 0
50 92 20 0
50 92 32 0
31 65 87 0
45 65 87 0
45 31 87 0
45 31 65 0
68 69 39 0
73 69 39 0
73 68 39 0
73 68 69 0
44 63 55 0
2 63 55 0
2 44 55 0
2 44 63 0
46 56 6 0
59 56 6 0
59 46 6 0
59 46 56 0
52 5 22 0
13 5 22 0
13 52 22 0
13 52 5 0
16 86 64 0
34 86 64 0
34 16 64 0
34 16 86 0
30 7 81 0
36 7 81 0
36 30 81 0
36 30 7 0
57 67 23 0
61 67 23 0
61 57 23 0
61 57 67 0
15 54 12 0
84 54 12 0
84 15 12 0
84 15 54 0
91 85 77 0
37 85 77 0
37 91 77 0
37 91 85 0
53 80 76 0
33 80 76 0
33 53 76 0
33 53 80 0
93 24 17 0
75 24 17 0
75 93 17 0
75 93 24 0
74 27 10 0
49 27 10 0
49 74 10 0
49 74 27 0
28 3 83 0
88 3 83 0
88 28 83 0
88 28 3 0
60 42 78 0
25 42 78 0
25 60 78 0
25 60 42 0
89 26 8 0
72 26 8 0
72 89 8 0
72 89 26 0
66 11 90 0
43 11 90 0
43 66 90 0
43 66 11 0
58 9 19 0
35 9 19 0
35 58 19 0
35 58 9 0
29 21 41 0
70 21 41 0
70 29 41 0
70 29 21 0
62 40 82 0
62 40 48 0
62 40 51 0
62 82 48 0
62 82 51 0
62 48 51 0
40 82 48 0
40 82 51 0
40 48 51 0
82 48 51 0
